c "105878.clq"
p edge 251 3760
e 1 17
e 1 18
e 1 19
e 1 20
e 1 21
e 1 23
e 1 28
e 1 36
e 1 71
e 1 74
e 1 89
e 1 157
e 1 159
e 1 185
e 1 244
e 1 250
e 2 17
e 2 18
e 2 19
e 2 20
e 2 21
e 2 22
e 2 23
e 2 24
e 2 28
e 2 33
e 2 36
e 2 40
e 2 45
e 2 51
e 2 68
e 2 73
e 2 81
e 2 109
e 2 110
e 2 111
e 2 113
e 2 128
e 2 141
e 2 146
e 2 151
e 2 156
e 2 167
e 2 181
e 2 203
e 2 236
e 2 238
e 3 17
e 3 18
e 3 19
e 3 20
e 3 23
e 3 25
e 3 26
e 3 27
e 3 31
e 3 48
e 3 62
e 3 66
e 3 69
e 3 84
e 3 94
e 3 99
e 3 107
e 3 114
e 3 123
e 3 136
e 3 137
e 3 142
e 3 154
e 3 160
e 3 200
e 3 212
e 3 230
e 3 245
e 4 17
e 4 18
e 4 19
e 4 20
e 4 21
e 4 22
e 4 23
e 4 24
e 4 25
e 4 26
e 4 27
e 4 28
e 4 29
e 4 30
e 4 32
e 4 33
e 4 34
e 4 36
e 4 39
e 4 40
e 4 42
e 4 44
e 4 45
e 4 48
e 4 49
e 4 51
e 4 52
e 4 53
e 4 55
e 4 56
e 4 57
e 4 59
e 4 61
e 4 71
e 4 75
e 4 81
e 4 87
e 4 89
e 4 96
e 4 98
e 4 104
e 4 110
e 4 112
e 4 115
e 4 125
e 4 131
e 4 144
e 4 145
e 4 146
e 4 151
e 4 159
e 4 160
e 4 161
e 4 170
e 4 172
e 4 187
e 4 188
e 4 192
e 4 197
e 4 209
e 4 226
e 4 235
e 4 236
e 4 244
e 5 17
e 5 18
e 5 19
e 5 20
e 5 22
e 5 24
e 5 27
e 5 28
e 5 29
e 5 30
e 5 32
e 5 33
e 5 37
e 5 44
e 5 56
e 5 58
e 5 63
e 5 65
e 5 69
e 5 74
e 5 89
e 5 108
e 5 112
e 5 113
e 5 115
e 5 118
e 5 133
e 5 142
e 5 158
e 5 166
e 5 170
e 5 177
e 5 183
e 5 187
e 5 201
e 5 218
e 5 220
e 6 17
e 6 18
e 6 19
e 6 20
e 6 21
e 6 23
e 6 25
e 6 26
e 6 27
e 6 28
e 6 30
e 6 32
e 6 35
e 6 36
e 6 38
e 6 39
e 6 42
e 6 44
e 6 47
e 6 49
e 6 58
e 6 64
e 6 70
e 6 74
e 6 77
e 6 80
e 6 85
e 6 89
e 6 90
e 6 97
e 6 103
e 6 123
e 6 126
e 6 136
e 6 140
e 6 152
e 6 160
e 6 178
e 6 184
e 6 206
e 6 216
e 6 219
e 6 237
e 7 17
e 7 18
e 7 19
e 7 21
e 7 22
e 7 23
e 7 24
e 7 25
e 7 26
e 7 27
e 7 28
e 7 31
e 7 37
e 7 40
e 7 42
e 7 45
e 7 46
e 7 51
e 7 53
e 7 60
e 7 75
e 7 84
e 7 86
e 7 87
e 7 101
e 7 106
e 7 115
e 7 118
e 7 121
e 7 126
e 7 129
e 7 131
e 7 140
e 7 146
e 7 158
e 7 160
e 7 176
e 7 183
e 7 184
e 7 192
e 7 197
e 7 202
e 7 204
e 7 210
e 7 211
e 7 224
e 7 225
e 7 227
e 8 17
e 8 18
e 8 19
e 8 20
e 8 21
e 8 22
e 8 23
e 8 24
e 8 27
e 8 28
e 8 31
e 8 53
e 8 85
e 8 93
e 8 94
e 8 97
e 8 106
e 8 119
e 8 137
e 8 153
e 8 154
e 8 164
e 8 165
e 8 176
e 8 196
e 8 197
e 8 218
e 8 228
e 8 240
e 9 17
e 9 18
e 9 19
e 9 20
e 9 21
e 9 22
e 9 23
e 9 25
e 9 26
e 9 28
e 9 29
e 9 30
e 9 31
e 9 35
e 9 38
e 9 40
e 9 41
e 9 44
e 9 49
e 9 54
e 9 55
e 9 56
e 9 58
e 9 59
e 9 62
e 9 63
e 9 70
e 9 73
e 9 77
e 9 78
e 9 79
e 9 83
e 9 86
e 9 90
e 9 92
e 9 101
e 9 102
e 9 104
e 9 107
e 9 109
e 9 118
e 9 124
e 9 128
e 9 134
e 9 141
e 9 144
e 9 147
e 9 151
e 9 161
e 9 173
e 9 174
e 9 182
e 9 187
e 9 191
e 9 195
e 9 196
e 9 204
e 9 214
e 9 215
e 9 223
e 9 234
e 9 237
e 9 241
e 9 243
e 9 244
e 9 251
e 10 17
e 10 18
e 10 19
e 10 21
e 10 22
e 10 24
e 10 27
e 10 30
e 10 38
e 10 50
e 10 54
e 10 76
e 10 78
e 10 90
e 10 120
e 10 124
e 10 125
e 10 162
e 10 174
e 10 211
e 10 227
e 10 229
e 10 239
e 10 248
e 11 17
e 11 18
e 11 20
e 11 21
e 11 22
e 11 24
e 11 30
e 11 35
e 11 37
e 11 42
e 11 47
e 11 53
e 11 59
e 11 61
e 11 67
e 11 90
e 11 95
e 11 98
e 11 99
e 11 100
e 11 101
e 11 104
e 11 107
e 11 134
e 11 156
e 11 167
e 11 177
e 11 204
e 11 216
e 11 225
e 11 242
e 11 243
e 11 246
e 12 17
e 12 18
e 12 19
e 12 20
e 12 21
e 12 22
e 12 23
e 12 28
e 12 29
e 12 30
e 12 31
e 12 33
e 12 42
e 12 43
e 12 45
e 12 46
e 12 59
e 12 88
e 12 90
e 12 100
e 12 104
e 12 131
e 12 138
e 12 152
e 12 159
e 12 163
e 12 177
e 12 183
e 12 190
e 12 198
e 12 200
e 12 224
e 12 242
e 12 245
e 13 17
e 13 19
e 13 21
e 13 24
e 13 25
e 13 26
e 13 29
e 13 34
e 13 37
e 13 39
e 13 41
e 13 43
e 13 45
e 13 52
e 13 54
e 13 55
e 13 56
e 13 66
e 13 69
e 13 73
e 13 75
e 13 84
e 13 90
e 13 94
e 13 96
e 13 99
e 13 102
e 13 108
e 13 117
e 13 120
e 13 126
e 13 127
e 13 129
e 13 130
e 13 138
e 13 146
e 13 153
e 13 158
e 13 161
e 13 168
e 13 173
e 13 175
e 13 186
e 13 193
e 13 197
e 13 208
e 13 218
e 13 233
e 13 237
e 14 17
e 14 18
e 14 20
e 14 21
e 14 22
e 14 23
e 14 24
e 14 26
e 14 27
e 14 29
e 14 39
e 14 40
e 14 45
e 14 47
e 14 55
e 14 59
e 14 60
e 14 61
e 14 63
e 14 64
e 14 65
e 14 88
e 14 111
e 14 113
e 14 119
e 14 121
e 14 145
e 14 148
e 14 153
e 14 193
e 14 197
e 15 17
e 15 18
e 15 19
e 15 20
e 15 22
e 15 25
e 15 26
e 15 27
e 15 28
e 15 33
e 15 34
e 15 39
e 15 44
e 15 45
e 15 64
e 15 67
e 15 87
e 15 90
e 15 94
e 15 98
e 15 103
e 15 105
e 15 111
e 15 112
e 15 117
e 15 119
e 15 137
e 15 139
e 15 143
e 15 151
e 15 177
e 15 182
e 15 213
e 16 17
e 16 18
e 16 19
e 16 20
e 16 24
e 16 25
e 16 26
e 16 32
e 16 34
e 16 36
e 16 39
e 16 49
e 16 50
e 16 53
e 16 55
e 16 64
e 16 71
e 16 75
e 16 78
e 16 79
e 16 89
e 16 97
e 16 110
e 16 119
e 16 131
e 16 137
e 16 150
e 16 151
e 16 152
e 16 175
e 16 186
e 16 231
e 16 243
e 16 248
e 17 18
e 17 19
e 17 20
e 17 21
e 17 22
e 17 23
e 17 24
e 17 25
e 17 27
e 17 28
e 17 29
e 17 30
e 17 31
e 17 32
e 17 33
e 17 34
e 17 35
e 17 36
e 17 37
e 17 38
e 17 39
e 17 40
e 17 42
e 17 45
e 17 46
e 17 47
e 17 48
e 17 49
e 17 51
e 17 52
e 17 54
e 17 59
e 17 60
e 17 63
e 17 65
e 17 66
e 17 68
e 17 69
e 17 73
e 17 77
e 17 78
e 17 79
e 17 82
e 17 84
e 17 85
e 17 88
e 17 92
e 17 95
e 17 97
e 17 98
e 17 101
e 17 102
e 17 116
e 17 132
e 17 135
e 17 136
e 17 139
e 17 141
e 17 142
e 17 143
e 17 147
e 17 154
e 17 158
e 17 161
e 17 165
e 17 166
e 17 168
e 17 170
e 17 172
e 17 173
e 17 178
e 17 179
e 17 181
e 17 182
e 17 194
e 17 197
e 17 219
e 17 232
e 17 251
e 18 19
e 18 20
e 18 21
e 18 22
e 18 23
e 18 24
e 18 25
e 18 26
e 18 29
e 18 32
e 18 33
e 18 35
e 18 37
e 18 38
e 18 39
e 18 40
e 18 43
e 18 47
e 18 52
e 18 56
e 18 57
e 18 58
e 18 61
e 18 70
e 18 71
e 18 78
e 18 80
e 18 85
e 18 88
e 18 96
e 18 107
e 18 108
e 18 110
e 18 114
e 18 115
e 18 122
e 18 129
e 18 130
e 18 132
e 18 134
e 18 136
e 18 140
e 18 153
e 18 154
e 18 155
e 18 159
e 18 167
e 18 169
e 18 172
e 18 180
e 18 186
e 18 189
e 18 194
e 18 195
e 18 201
e 18 204
e 18 205
e 18 230
e 19 20
e 19 21
e 19 22
e 19 23
e 19 24
e 19 25
e 19 26
e 19 27
e 19 28
e 19 29
e 19 30
e 19 31
e 19 32
e 19 34
e 19 35
e 19 36
e 19 38
e 19 41
e 19 42
e 19 43
e 19 49
e 19 50
e 19 51
e 19 52
e 19 61
e 19 64
e 19 66
e 19 69
e 19 79
e 19 80
e 19 81
e 19 88
e 19 90
e 19 91
e 19 97
e 19 98
e 19 99
e 19 103
e 19 109
e 19 120
e 19 124
e 19 128
e 19 129
e 19 132
e 19 135
e 19 136
e 19 141
e 19 146
e 19 147
e 19 148
e 19 155
e 19 161
e 19 162
e 19 166
e 19 167
e 19 171
e 19 184
e 19 185
e 19 187
e 19 188
e 19 189
e 19 190
e 19 199
e 19 204
e 19 210
e 19 213
e 19 214
e 19 218
e 19 219
e 19 223
e 19 228
e 19 229
e 19 230
e 19 231
e 19 232
e 19 234
e 19 238
e 19 240
e 20 21
e 20 22
e 20 23
e 20 24
e 20 25
e 20 26
e 20 27
e 20 29
e 20 30
e 20 31
e 20 32
e 20 34
e 20 35
e 20 37
e 20 38
e 20 41
e 20 43
e 20 44
e 20 45
e 20 46
e 20 47
e 20 48
e 20 49
e 20 50
e 20 51
e 20 53
e 20 54
e 20 58
e 20 60
e 20 61
e 20 65
e 20 67
e 20 71
e 20 80
e 20 81
e 20 85
e 20 86
e 20 90
e 20 97
e 20 99
e 20 101
e 20 105
e 20 107
e 20 113
e 20 118
e 20 121
e 20 132
e 20 134
e 20 142
e 20 145
e 20 146
e 20 148
e 20 149
e 20 170
e 20 177
e 20 178
e 20 183
e 20 193
e 20 199
e 20 210
e 20 212
e 20 214
e 20 217
e 20 224
e 20 233
e 20 235
e 20 236
e 20 244
e 20 249
e 21 22
e 21 23
e 21 24
e 21 25
e 21 26
e 21 27
e 21 29
e 21 31
e 21 32
e 21 33
e 21 36
e 21 37
e 21 39
e 21 40
e 21 43
e 21 44
e 21 45
e 21 46
e 21 47
e 21 48
e 21 49
e 21 51
e 21 55
e 21 56
e 21 62
e 21 63
e 21 65
e 21 70
e 21 71
e 21 75
e 21 83
e 21 91
e 21 92
e 21 93
e 21 99
e 21 102
e 21 107
e 21 115
e 21 118
e 21 130
e 21 133
e 21 134
e 21 147
e 21 149
e 21 152
e 21 160
e 21 162
e 21 167
e 21 170
e 21 171
e 21 173
e 21 179
e 21 182
e 21 187
e 21 193
e 21 196
e 21 197
e 21 214
e 21 223
e 22 23
e 22 25
e 22 26
e 22 27
e 22 28
e 22 30
e 22 31
e 22 32
e 22 33
e 22 34
e 22 35
e 22 37
e 22 38
e 22 39
e 22 40
e 22 41
e 22 42
e 22 43
e 22 47
e 22 48
e 22 50
e 22 52
e 22 53
e 22 58
e 22 60
e 22 62
e 22 63
e 22 64
e 22 68
e 22 70
e 22 71
e 22 72
e 22 78
e 22 81
e 22 82
e 22 85
e 22 88
e 22 94
e 22 95
e 22 103
e 22 109
e 22 110
e 22 114
e 22 115
e 22 117
e 22 119
e 22 124
e 22 134
e 22 137
e 22 140
e 22 142
e 22 157
e 22 160
e 22 162
e 22 167
e 22 173
e 22 178
e 22 179
e 22 185
e 22 188
e 22 193
e 22 194
e 22 197
e 22 200
e 22 201
e 22 212
e 22 218
e 22 220
e 22 232
e 22 238
e 22 246
e 22 249
e 22 251
e 23 24
e 23 25
e 23 26
e 23 29
e 23 31
e 23 32
e 23 33
e 23 34
e 23 35
e 23 36
e 23 38
e 23 41
e 23 47
e 23 49
e 23 52
e 23 55
e 23 57
e 23 59
e 23 60
e 23 63
e 23 64
e 23 70
e 23 72
e 23 78
e 23 80
e 23 82
e 23 86
e 23 89
e 23 93
e 23 94
e 23 99
e 23 101
e 23 104
e 23 115
e 23 128
e 23 130
e 23 132
e 23 133
e 23 143
e 23 146
e 23 169
e 23 177
e 23 181
e 23 200
e 23 202
e 23 207
e 23 217
e 23 219
e 23 220
e 23 223
e 23 225
e 23 228
e 23 236
e 23 239
e 23 247
e 23 248
e 23 249
e 24 25
e 24 27
e 24 29
e 24 30
e 24 31
e 24 32
e 24 33
e 24 39
e 24 41
e 24 43
e 24 46
e 24 49
e 24 50
e 24 56
e 24 57
e 24 61
e 24 62
e 24 63
e 24 67
e 24 68
e 24 70
e 24 71
e 24 75
e 24 76
e 24 83
e 24 85
e 24 86
e 24 94
e 24 98
e 24 105
e 24 112
e 24 114
e 24 138
e 24 139
e 24 143
e 24 148
e 24 152
e 24 164
e 24 166
e 24 168
e 24 171
e 24 183
e 24 189
e 24 192
e 24 197
e 24 200
e 24 202
e 24 213
e 24 216
e 24 218
e 24 228
e 24 233
e 24 237
e 24 243
e 24 244
e 24 250
e 25 26
e 25 28
e 25 30
e 25 31
e 25 32
e 25 35
e 25 36
e 25 37
e 25 38
e 25 40
e 25 41
e 25 42
e 25 43
e 25 44
e 25 45
e 25 50
e 25 51
e 25 53
e 25 55
e 25 57
e 25 64
e 25 65
e 25 68
e 25 71
e 25 74
e 25 75
e 25 77
e 25 78
e 25 85
e 25 92
e 25 97
e 25 106
e 25 112
e 25 118
e 25 122
e 25 126
e 25 127
e 25 129
e 25 132
e 25 135
e 25 136
e 25 147
e 25 152
e 25 153
e 25 155
e 25 164
e 25 179
e 25 181
e 25 184
e 25 187
e 25 191
e 25 198
e 25 199
e 25 205
e 25 207
e 25 209
e 25 217
e 25 222
e 25 231
e 25 236
e 25 241
e 25 250
e 26 27
e 26 28
e 26 29
e 26 30
e 26 31
e 26 33
e 26 34
e 26 35
e 26 36
e 26 37
e 26 38
e 26 39
e 26 40
e 26 41
e 26 43
e 26 48
e 26 50
e 26 51
e 26 52
e 26 54
e 26 59
e 26 62
e 26 63
e 26 64
e 26 65
e 26 67
e 26 75
e 26 77
e 26 80
e 26 82
e 26 85
e 26 86
e 26 87
e 26 94
e 26 104
e 26 107
e 26 114
e 26 121
e 26 124
e 26 127
e 26 128
e 26 129
e 26 130
e 26 162
e 26 165
e 26 169
e 26 170
e 26 177
e 26 180
e 26 183
e 26 190
e 26 198
e 26 201
e 26 202
e 26 204
e 26 209
e 26 217
e 26 227
e 26 238
e 26 244
e 26 245
e 27 28
e 27 29
e 27 32
e 27 33
e 27 34
e 27 35
e 27 36
e 27 37
e 27 38
e 27 39
e 27 40
e 27 42
e 27 45
e 27 46
e 27 47
e 27 48
e 27 52
e 27 54
e 27 55
e 27 56
e 27 59
e 27 66
e 27 67
e 27 70
e 27 72
e 27 74
e 27 77
e 27 83
e 27 87
e 27 89
e 27 93
e 27 94
e 27 99
e 27 103
e 27 109
e 27 110
e 27 112
e 27 113
e 27 120
e 27 123
e 27 124
e 27 127
e 27 130
e 27 133
e 27 136
e 27 142
e 27 143
e 27 146
e 27 154
e 27 158
e 27 165
e 27 171
e 27 176
e 27 180
e 27 183
e 27 192
e 27 195
e 27 196
e 27 197
e 27 198
e 27 202
e 27 207
e 27 213
e 27 214
e 27 219
e 27 220
e 27 223
e 27 225
e 27 226
e 27 230
e 27 234
e 27 236
e 27 238
e 27 242
e 27 247
e 28 29
e 28 30
e 28 31
e 28 32
e 28 34
e 28 38
e 28 39
e 28 40
e 28 41
e 28 42
e 28 44
e 28 47
e 28 49
e 28 50
e 28 52
e 28 53
e 28 54
e 28 56
e 28 57
e 28 58
e 28 64
e 28 65
e 28 66
e 28 68
e 28 69
e 28 73
e 28 74
e 28 78
e 28 79
e 28 83
e 28 88
e 28 99
e 28 102
e 28 108
e 28 109
e 28 116
e 28 122
e 28 128
e 28 129
e 28 138
e 28 140
e 28 144
e 28 151
e 28 160
e 28 164
e 28 175
e 28 181
e 28 182
e 28 189
e 28 203
e 28 207
e 28 221
e 28 224
e 28 235
e 28 238
e 28 248
e 29 30
e 29 31
e 29 34
e 29 35
e 29 36
e 29 37
e 29 38
e 29 41
e 29 44
e 29 46
e 29 47
e 29 48
e 29 52
e 29 54
e 29 63
e 29 65
e 29 68
e 29 73
e 29 75
e 29 77
e 29 79
e 29 82
e 29 89
e 29 92
e 29 105
e 29 107
e 29 109
e 29 111
e 29 117
e 29 120
e 29 123
e 29 133
e 29 137
e 29 141
e 29 144
e 29 153
e 29 160
e 29 165
e 29 177
e 29 180
e 29 204
e 29 208
e 29 210
e 29 213
e 29 214
e 29 215
e 29 216
e 29 218
e 29 219
e 29 225
e 29 232
e 29 239
e 30 33
e 30 34
e 30 35
e 30 38
e 30 40
e 30 43
e 30 45
e 30 47
e 30 50
e 30 53
e 30 57
e 30 58
e 30 59
e 30 60
e 30 61
e 30 66
e 30 67
e 30 68
e 30 69
e 30 72
e 30 74
e 30 78
e 30 80
e 30 81
e 30 82
e 30 84
e 30 86
e 30 96
e 30 100
e 30 102
e 30 104
e 30 113
e 30 114
e 30 122
e 30 126
e 30 129
e 30 131
e 30 135
e 30 137
e 30 138
e 30 139
e 30 141
e 30 144
e 30 145
e 30 147
e 30 149
e 30 154
e 30 156
e 30 159
e 30 192
e 30 193
e 30 194
e 30 199
e 30 203
e 30 210
e 30 212
e 30 221
e 30 228
e 30 229
e 30 231
e 30 234
e 30 240
e 31 32
e 31 33
e 31 34
e 31 36
e 31 37
e 31 38
e 31 41
e 31 42
e 31 43
e 31 46
e 31 48
e 31 49
e 31 52
e 31 59
e 31 61
e 31 62
e 31 64
e 31 65
e 31 66
e 31 74
e 31 76
e 31 77
e 31 80
e 31 85
e 31 86
e 31 92
e 31 94
e 31 97
e 31 100
e 31 105
e 31 114
e 31 116
e 31 119
e 31 120
e 31 121
e 31 133
e 31 139
e 31 156
e 31 162
e 31 171
e 31 176
e 31 178
e 31 179
e 31 188
e 31 195
e 31 199
e 31 200
e 31 202
e 31 205
e 31 215
e 31 217
e 31 231
e 32 33
e 32 34
e 32 35
e 32 36
e 32 37
e 32 40
e 32 46
e 32 49
e 32 50
e 32 53
e 32 57
e 32 61
e 32 62
e 32 64
e 32 65
e 32 66
e 32 67
e 32 70
e 32 71
e 32 72
e 32 77
e 32 81
e 32 90
e 32 96
e 32 107
e 32 109
e 32 111
e 32 112
e 32 113
e 32 117
e 32 119
e 32 120
e 32 124
e 32 136
e 32 147
e 32 157
e 32 158
e 32 159
e 32 162
e 32 166
e 32 174
e 32 179
e 32 185
e 32 200
e 32 201
e 32 204
e 32 210
e 32 214
e 32 230
e 32 237
e 32 243
e 32 248
e 32 251
e 33 41
e 33 48
e 33 54
e 33 59
e 33 60
e 33 66
e 33 68
e 33 76
e 33 87
e 33 90
e 33 91
e 33 95
e 33 100
e 33 104
e 33 105
e 33 108
e 33 111
e 33 113
e 33 120
e 33 139
e 33 143
e 33 145
e 33 146
e 33 149
e 33 150
e 33 159
e 33 160
e 33 164
e 33 170
e 33 174
e 33 183
e 33 184
e 33 191
e 33 212
e 33 233
e 33 240
e 34 35
e 34 36
e 34 39
e 34 43
e 34 44
e 34 45
e 34 47
e 34 48
e 34 50
e 34 59
e 34 61
e 34 65
e 34 68
e 34 69
e 34 71
e 34 73
e 34 74
e 34 76
e 34 83
e 34 85
e 34 89
e 34 102
e 34 105
e 34 108
e 34 109
e 34 110
e 34 113
e 34 119
e 34 124
e 34 129
e 34 141
e 34 145
e 34 147
e 34 165
e 34 184
e 34 185
e 34 189
e 34 190
e 34 196
e 34 198
e 34 201
e 34 203
e 34 215
e 34 230
e 34 250
e 35 41
e 35 42
e 35 44
e 35 46
e 35 49
e 35 56
e 35 58
e 35 59
e 35 66
e 35 72
e 35 75
e 35 81
e 35 83
e 35 85
e 35 88
e 35 96
e 35 100
e 35 107
e 35 109
e 35 111
e 35 119
e 35 121
e 35 126
e 35 131
e 35 142
e 35 153
e 35 155
e 35 159
e 35 181
e 35 190
e 35 194
e 35 206
e 35 209
e 35 212
e 35 222
e 35 232
e 36 37
e 36 39
e 36 41
e 36 42
e 36 43
e 36 44
e 36 45
e 36 47
e 36 50
e 36 51
e 36 53
e 36 54
e 36 55
e 36 60
e 36 62
e 36 66
e 36 69
e 36 71
e 36 72
e 36 73
e 36 74
e 36 79
e 36 81
e 36 88
e 36 91
e 36 94
e 36 101
e 36 103
e 36 111
e 36 118
e 36 124
e 36 138
e 36 140
e 36 149
e 36 156
e 36 161
e 36 169
e 36 176
e 36 180
e 36 184
e 36 191
e 36 192
e 36 200
e 36 203
e 36 210
e 36 221
e 36 222
e 36 225
e 36 237
e 36 238
e 36 240
e 36 248
e 36 251
e 37 40
e 37 44
e 37 52
e 37 53
e 37 55
e 37 58
e 37 59
e 37 60
e 37 67
e 37 70
e 37 79
e 37 91
e 37 94
e 37 98
e 37 100
e 37 104
e 37 108
e 37 125
e 37 134
e 37 136
e 37 137
e 37 151
e 37 171
e 37 189
e 37 190
e 37 195
e 37 196
e 37 202
e 37 228
e 37 238
e 37 241
e 38 41
e 38 43
e 38 44
e 38 54
e 38 55
e 38 56
e 38 58
e 38 63
e 38 64
e 38 67
e 38 70
e 38 73
e 38 74
e 38 76
e 38 80
e 38 98
e 38 99
e 38 100
e 38 102
e 38 108
e 38 111
e 38 116
e 38 127
e 38 157
e 38 164
e 38 167
e 38 169
e 38 184
e 38 201
e 38 206
e 38 224
e 38 230
e 38 243
e 38 248
e 38 250
e 39 43
e 39 46
e 39 47
e 39 51
e 39 53
e 39 54
e 39 55
e 39 58
e 39 63
e 39 64
e 39 67
e 39 69
e 39 72
e 39 83
e 39 86
e 39 95
e 39 104
e 39 108
e 39 122
e 39 125
e 39 128
e 39 129
e 39 133
e 39 155
e 39 157
e 39 160
e 39 163
e 39 171
e 39 172
e 39 186
e 39 200
e 39 219
e 39 228
e 39 236
e 39 243
e 39 247
e 40 42
e 40 45
e 40 48
e 40 50
e 40 51
e 40 55
e 40 60
e 40 62
e 40 70
e 40 72
e 40 73
e 40 75
e 40 79
e 40 86
e 40 92
e 40 102
e 40 110
e 40 115
e 40 118
e 40 122
e 40 126
e 40 127
e 40 139
e 40 141
e 40 172
e 40 173
e 40 174
e 40 177
e 40 184
e 40 186
e 40 195
e 40 208
e 40 209
e 40 210
e 40 211
e 40 220
e 40 222
e 40 227
e 40 238
e 40 240
e 40 249
e 41 42
e 41 44
e 41 46
e 41 51
e 41 56
e 41 57
e 41 58
e 41 60
e 41 62
e 41 69
e 41 75
e 41 76
e 41 77
e 41 80
e 41 82
e 41 84
e 41 88
e 41 89
e 41 106
e 41 124
e 41 125
e 41 126
e 41 144
e 41 150
e 41 159
e 41 172
e 41 173
e 41 179
e 41 183
e 41 184
e 41 197
e 41 215
e 41 216
e 41 217
e 41 221
e 42 46
e 42 50
e 42 51
e 42 57
e 42 61
e 42 62
e 42 72
e 42 79
e 42 82
e 42 90
e 42 95
e 42 97
e 42 100
e 42 115
e 42 124
e 42 125
e 42 131
e 42 146
e 42 154
e 42 155
e 42 170
e 42 187
e 42 198
e 42 205
e 42 206
e 42 208
e 42 221
e 42 226
e 42 247
e 43 46
e 43 48
e 43 49
e 43 50
e 43 51
e 43 52
e 43 57
e 43 66
e 43 71
e 43 75
e 43 76
e 43 78
e 43 88
e 43 89
e 43 91
e 43 102
e 43 104
e 43 107
e 43 119
e 43 122
e 43 131
e 43 132
e 43 137
e 43 156
e 43 157
e 43 164
e 43 171
e 43 175
e 43 186
e 43 192
e 43 200
e 43 209
e 43 230
e 43 241
e 43 244
e 43 250
e 44 49
e 44 53
e 44 54
e 44 56
e 44 63
e 44 64
e 44 68
e 44 76
e 44 80
e 44 81
e 44 87
e 44 105
e 44 108
e 44 109
e 44 114
e 44 115
e 44 127
e 44 129
e 44 132
e 44 133
e 44 139
e 44 150
e 44 160
e 44 170
e 44 171
e 44 202
e 44 211
e 44 230
e 44 237
e 44 238
e 44 248
e 44 250
e 45 46
e 45 48
e 45 51
e 45 53
e 45 57
e 45 60
e 45 62
e 45 63
e 45 64
e 45 66
e 45 67
e 45 68
e 45 70
e 45 71
e 45 73
e 45 78
e 45 83
e 45 84
e 45 86
e 45 87
e 45 89
e 45 93
e 45 94
e 45 101
e 45 103
e 45 106
e 45 112
e 45 113
e 45 118
e 45 124
e 45 125
e 45 126
e 45 138
e 45 139
e 45 140
e 45 141
e 45 142
e 45 156
e 45 163
e 45 164
e 45 175
e 45 178
e 45 186
e 45 187
e 45 188
e 45 194
e 45 200
e 45 201
e 45 208
e 45 210
e 45 215
e 45 244
e 45 248
e 46 48
e 46 62
e 46 82
e 46 96
e 46 97
e 46 99
e 46 125
e 46 129
e 46 137
e 46 140
e 46 145
e 46 151
e 46 167
e 46 179
e 46 183
e 46 214
e 46 223
e 46 224
e 46 240
e 46 246
e 46 250
e 47 54
e 47 58
e 47 59
e 47 60
e 47 69
e 47 76
e 47 83
e 47 84
e 47 97
e 47 101
e 47 104
e 47 117
e 47 118
e 47 130
e 47 133
e 47 134
e 47 139
e 47 155
e 47 162
e 47 175
e 47 193
e 47 200
e 47 206
e 47 218
e 47 221
e 47 237
e 47 239
e 48 52
e 48 55
e 48 57
e 48 60
e 48 61
e 48 62
e 48 63
e 48 65
e 48 69
e 48 70
e 48 71
e 48 77
e 48 80
e 48 83
e 48 87
e 48 94
e 48 98
e 48 101
e 48 104
e 48 105
e 48 106
e 48 115
e 48 117
e 48 140
e 48 142
e 48 143
e 48 144
e 48 151
e 48 155
e 48 161
e 48 162
e 48 167
e 48 168
e 48 173
e 48 178
e 48 181
e 48 188
e 48 189
e 48 192
e 48 201
e 48 214
e 48 216
e 48 228
e 48 242
e 48 244
e 48 247
e 49 52
e 49 63
e 49 68
e 49 70
e 49 84
e 49 106
e 49 110
e 49 115
e 49 121
e 49 148
e 49 155
e 49 164
e 49 167
e 49 221
e 49 227
e 49 232
e 49 235
e 49 244
e 49 250
e 50 56
e 50 58
e 50 67
e 50 74
e 50 77
e 50 79
e 50 81
e 50 89
e 50 92
e 50 104
e 50 121
e 50 154
e 50 176
e 50 195
e 50 205
e 50 211
e 50 213
e 51 55
e 51 56
e 51 57
e 51 61
e 51 65
e 51 72
e 51 82
e 51 93
e 51 98
e 51 101
e 51 103
e 51 106
e 51 112
e 51 138
e 51 141
e 51 150
e 51 151
e 51 162
e 51 167
e 51 174
e 51 181
e 51 182
e 51 224
e 51 235
e 52 61
e 52 69
e 52 72
e 52 76
e 52 77
e 52 84
e 52 90
e 52 93
e 52 98
e 52 99
e 52 102
e 52 104
e 52 115
e 52 122
e 52 123
e 52 133
e 52 168
e 52 170
e 52 172
e 52 181
e 52 185
e 52 192
e 52 207
e 52 209
e 52 213
e 52 235
e 53 54
e 53 56
e 53 60
e 53 75
e 53 77
e 53 78
e 53 82
e 53 84
e 53 102
e 53 112
e 53 116
e 53 117
e 53 124
e 53 129
e 53 132
e 53 144
e 53 148
e 53 149
e 53 159
e 53 161
e 53 165
e 53 176
e 53 186
e 53 194
e 53 201
e 53 212
e 53 229
e 53 230
e 53 233
e 53 244
e 53 251
e 54 62
e 54 67
e 54 69
e 54 72
e 54 76
e 54 79
e 54 81
e 54 84
e 54 87
e 54 97
e 54 101
e 54 103
e 54 108
e 54 114
e 54 116
e 54 120
e 54 126
e 54 132
e 54 145
e 54 152
e 54 171
e 54 230
e 54 243
e 55 57
e 55 73
e 55 77
e 55 83
e 55 88
e 55 106
e 55 107
e 55 111
e 55 113
e 55 115
e 55 117
e 55 121
e 55 131
e 55 154
e 55 155
e 55 168
e 55 169
e 55 214
e 55 221
e 55 232
e 55 235
e 55 250
e 56 57
e 56 67
e 56 72
e 56 75
e 56 79
e 56 81
e 56 98
e 56 120
e 56 138
e 56 141
e 56 145
e 56 147
e 56 179
e 56 180
e 56 188
e 56 189
e 56 220
e 56 229
e 56 240
e 57 58
e 57 61
e 57 72
e 57 76
e 57 82
e 57 87
e 57 95
e 57 96
e 57 103
e 57 114
e 57 120
e 57 123
e 57 134
e 57 147
e 57 156
e 57 168
e 57 172
e 57 178
e 57 179
e 57 216
e 57 222
e 57 236
e 58 76
e 58 89
e 58 120
e 58 134
e 58 135
e 58 143
e 58 150
e 58 205
e 58 206
e 58 207
e 58 216
e 58 218
e 58 229
e 58 245
e 59 68
e 59 79
e 59 86
e 59 91
e 59 100
e 59 101
e 59 113
e 59 115
e 59 132
e 59 135
e 59 149
e 59 152
e 59 192
e 59 205
e 59 229
e 59 231
e 59 232
e 60 66
e 60 67
e 60 68
e 60 70
e 60 72
e 60 73
e 60 84
e 60 85
e 60 97
e 60 99
e 60 114
e 60 117
e 60 120
e 60 127
e 60 133
e 60 153
e 60 154
e 60 155
e 60 160
e 60 165
e 60 167
e 60 178
e 61 69
e 61 73
e 61 74
e 61 75
e 61 76
e 61 78
e 61 87
e 61 88
e 61 93
e 61 95
e 61 105
e 61 116
e 61 123
e 61 127
e 61 130
e 61 135
e 61 157
e 61 171
e 61 180
e 61 185
e 61 196
e 61 199
e 61 202
e 61 203
e 61 215
e 61 226
e 61 236
e 61 247
e 62 65
e 62 83
e 62 89
e 62 95
e 62 96
e 62 100
e 62 112
e 62 113
e 62 122
e 62 135
e 62 139
e 62 149
e 62 154
e 62 170
e 62 171
e 62 186
e 62 190
e 62 205
e 62 212
e 62 219
e 62 222
e 62 235
e 63 79
e 63 80
e 63 84
e 63 90
e 63 91
e 63 95
e 63 96
e 63 100
e 63 112
e 63 117
e 63 122
e 63 123
e 63 133
e 63 148
e 63 153
e 63 177
e 63 193
e 63 214
e 63 217
e 63 229
e 63 247
e 63 248
e 64 65
e 64 68
e 64 73
e 64 76
e 64 81
e 64 84
e 64 91
e 64 93
e 64 112
e 64 119
e 64 120
e 64 132
e 64 142
e 64 144
e 64 152
e 64 163
e 64 173
e 64 174
e 64 179
e 64 190
e 64 236
e 64 238
e 65 66
e 65 71
e 65 73
e 65 82
e 65 84
e 65 87
e 65 89
e 65 94
e 65 98
e 65 107
e 65 123
e 65 136
e 65 137
e 65 138
e 65 147
e 65 148
e 65 150
e 65 153
e 65 165
e 65 166
e 65 189
e 65 192
e 65 203
e 65 204
e 65 216
e 65 219
e 65 223
e 65 224
e 65 240
e 65 242
e 65 243
e 65 245
e 66 81
e 66 82
e 66 83
e 66 93
e 66 96
e 66 102
e 66 106
e 66 128
e 66 129
e 66 130
e 66 145
e 66 148
e 66 149
e 66 151
e 66 168
e 66 173
e 66 182
e 66 189
e 66 198
e 66 204
e 66 215
e 66 218
e 66 219
e 66 224
e 66 233
e 66 234
e 66 237
e 66 240
e 66 241
e 66 246
e 67 83
e 67 97
e 67 107
e 67 108
e 67 111
e 67 116
e 67 118
e 67 131
e 67 144
e 67 187
e 67 195
e 67 208
e 67 210
e 67 235
e 67 240
e 67 248
e 68 74
e 68 80
e 68 82
e 68 85
e 68 87
e 68 92
e 68 97
e 68 122
e 68 145
e 68 149
e 68 150
e 68 158
e 68 193
e 68 201
e 68 212
e 68 224
e 68 225
e 68 235
e 68 242
e 68 245
e 69 88
e 69 125
e 69 146
e 69 157
e 69 180
e 69 185
e 69 200
e 70 74
e 70 77
e 70 78
e 70 88
e 70 90
e 70 103
e 70 113
e 70 123
e 70 124
e 70 128
e 70 134
e 70 147
e 70 164
e 70 183
e 70 185
e 70 196
e 70 210
e 70 213
e 70 214
e 70 227
e 70 241
e 70 242
e 71 91
e 71 92
e 71 95
e 71 128
e 71 131
e 71 135
e 71 144
e 71 157
e 71 161
e 71 169
e 71 180
e 71 197
e 71 199
e 71 204
e 71 207
e 71 208
e 71 209
e 71 211
e 71 229
e 72 86
e 72 93
e 72 98
e 72 103
e 72 106
e 72 114
e 72 119
e 72 125
e 72 132
e 72 139
e 72 142
e 72 181
e 72 214
e 72 238
e 73 74
e 73 81
e 73 85
e 73 91
e 73 93
e 73 96
e 73 99
e 73 101
e 73 138
e 73 147
e 73 149
e 73 199
e 73 206
e 73 207
e 73 226
e 73 235
e 74 86
e 74 93
e 74 96
e 74 99
e 74 107
e 74 109
e 74 110
e 74 111
e 74 116
e 74 143
e 74 145
e 74 162
e 74 172
e 74 175
e 74 179
e 74 189
e 74 225
e 74 237
e 75 78
e 75 95
e 75 100
e 75 103
e 75 106
e 75 126
e 75 143
e 75 154
e 75 176
e 75 194
e 75 232
e 75 239
e 75 242
e 76 86
e 76 91
e 76 93
e 76 103
e 76 110
e 76 117
e 76 128
e 76 134
e 76 152
e 76 157
e 76 168
e 76 185
e 76 194
e 76 205
e 76 206
e 76 220
e 76 245
e 77 80
e 77 83
e 77 95
e 77 96
e 77 100
e 77 106
e 77 115
e 77 135
e 77 146
e 77 154
e 77 171
e 77 182
e 77 190
e 77 200
e 77 222
e 77 231
e 78 79
e 78 80
e 78 82
e 78 92
e 78 95
e 78 105
e 78 108
e 78 146
e 78 175
e 78 180
e 78 185
e 78 193
e 78 206
e 78 220
e 78 225
e 78 231
e 78 237
e 78 247
e 79 88
e 79 98
e 79 118
e 79 125
e 79 143
e 79 174
e 79 176
e 79 184
e 79 193
e 79 198
e 79 206
e 79 211
e 79 236
e 79 247
e 80 87
e 80 91
e 80 92
e 80 94
e 80 106
e 80 110
e 80 117
e 80 123
e 80 130
e 80 135
e 80 148
e 80 156
e 80 158
e 80 195
e 80 198
e 80 207
e 80 208
e 80 209
e 80 215
e 80 218
e 80 221
e 80 226
e 80 241
e 80 244
e 80 245
e 81 97
e 81 102
e 81 108
e 81 109
e 81 122
e 81 131
e 81 140
e 81 142
e 81 148
e 81 156
e 81 166
e 81 178
e 81 210
e 81 213
e 82 86
e 82 87
e 82 90
e 82 95
e 82 100
e 82 121
e 82 124
e 82 126
e 82 127
e 82 133
e 82 142
e 82 160
e 82 161
e 82 164
e 82 166
e 82 170
e 82 188
e 82 190
e 82 216
e 82 225
e 82 234
e 82 239
e 82 251
e 83 91
e 83 99
e 83 100
e 83 105
e 83 108
e 83 110
e 83 111
e 83 114
e 83 134
e 83 146
e 83 156
e 83 160
e 83 208
e 83 211
e 83 242
e 84 85
e 84 91
e 84 92
e 84 93
e 84 98
e 84 105
e 84 116
e 84 119
e 84 126
e 84 130
e 84 133
e 84 140
e 84 142
e 84 163
e 84 172
e 84 184
e 84 197
e 84 203
e 84 206
e 84 211
e 84 223
e 84 226
e 84 231
e 84 234
e 84 250
e 85 93
e 85 152
e 85 155
e 85 167
e 85 170
e 85 184
e 85 193
e 85 198
e 85 228
e 86 92
e 86 119
e 86 122
e 86 125
e 86 129
e 86 140
e 86 141
e 86 147
e 86 157
e 86 191
e 86 205
e 86 225
e 86 229
e 86 242
e 87 92
e 87 118
e 87 120
e 87 130
e 87 137
e 87 143
e 87 150
e 87 151
e 87 163
e 87 175
e 87 215
e 87 242
e 87 246
e 88 92
e 88 109
e 88 118
e 88 165
e 88 183
e 88 241
e 89 95
e 89 96
e 89 106
e 89 109
e 89 127
e 89 145
e 89 150
e 89 169
e 89 182
e 89 221
e 89 243
e 90 91
e 90 110
e 90 111
e 90 114
e 90 116
e 90 118
e 90 141
e 90 157
e 90 161
e 90 162
e 90 165
e 90 187
e 90 199
e 90 226
e 91 105
e 91 108
e 91 112
e 91 113
e 91 114
e 91 127
e 91 172
e 91 177
e 91 195
e 91 211
e 91 212
e 91 213
e 91 223
e 91 250
e 92 102
e 92 105
e 92 106
e 92 111
e 92 119
e 92 128
e 92 134
e 92 136
e 92 138
e 92 140
e 92 153
e 92 157
e 92 169
e 92 198
e 92 213
e 92 219
e 92 220
e 92 230
e 92 235
e 92 244
e 93 96
e 93 101
e 93 102
e 93 103
e 93 116
e 93 121
e 93 125
e 93 126
e 93 127
e 93 132
e 93 138
e 93 151
e 93 152
e 93 155
e 93 158
e 93 159
e 93 161
e 93 164
e 93 165
e 93 166
e 93 185
e 93 202
e 93 209
e 93 217
e 93 218
e 93 223
e 93 226
e 93 227
e 93 228
e 93 232
e 93 236
e 93 242
e 94 128
e 94 139
e 94 143
e 94 161
e 94 165
e 94 176
e 94 199
e 94 230
e 94 240
e 94 241
e 95 104
e 95 131
e 95 137
e 95 142
e 95 144
e 95 161
e 95 169
e 95 186
e 95 189
e 96 118
e 96 136
e 96 137
e 96 178
e 96 190
e 96 191
e 96 206
e 96 207
e 96 228
e 97 145
e 97 166
e 97 168
e 97 174
e 97 194
e 97 223
e 97 224
e 97 227
e 98 112
e 98 122
e 98 135
e 98 165
e 98 179
e 98 185
e 98 215
e 98 244
e 99 107
e 99 109
e 99 112
e 99 120
e 99 121
e 99 123
e 99 126
e 99 143
e 99 144
e 99 146
e 99 155
e 99 187
e 99 188
e 99 208
e 99 216
e 99 217
e 99 221
e 99 224
e 99 228
e 99 230
e 99 239
e 99 243
e 99 251
e 100 101
e 100 121
e 100 130
e 100 133
e 100 135
e 100 140
e 100 148
e 100 154
e 100 162
e 100 194
e 100 210
e 100 211
e 100 216
e 100 223
e 100 225
e 100 226
e 100 231
e 100 233
e 100 249
e 101 105
e 101 116
e 101 117
e 101 121
e 101 125
e 101 127
e 101 136
e 101 205
e 101 211
e 101 212
e 101 222
e 101 229
e 101 245
e 102 103
e 102 123
e 102 141
e 102 169
e 102 181
e 102 210
e 103 123
e 103 152
e 103 153
e 103 177
e 103 187
e 103 199
e 103 233
e 104 110
e 104 113
e 104 116
e 104 137
e 104 144
e 104 152
e 104 158
e 104 159
e 104 160
e 104 196
e 104 203
e 104 205
e 104 228
e 104 230
e 105 116
e 105 121
e 105 146
e 105 151
e 105 153
e 105 161
e 105 173
e 105 177
e 105 182
e 105 184
e 105 193
e 105 206
e 105 208
e 105 211
e 105 235
e 105 240
e 106 110
e 106 114
e 106 125
e 106 128
e 106 130
e 106 143
e 106 147
e 106 148
e 106 163
e 106 173
e 106 186
e 106 195
e 106 207
e 106 234
e 107 128
e 107 141
e 107 154
e 107 163
e 107 166
e 107 204
e 107 246
e 108 130
e 108 158
e 108 164
e 108 181
e 108 183
e 108 190
e 108 198
e 108 207
e 108 210
e 108 227
e 109 111
e 109 116
e 109 212
e 109 217
e 109 241
e 109 251
e 110 137
e 110 150
e 110 153
e 110 173
e 110 174
e 110 229
e 110 248
e 110 249
e 111 151
e 111 193
e 111 196
e 111 228
e 111 229
e 111 251
e 112 117
e 112 119
e 112 126
e 112 133
e 112 175
e 112 182
e 112 195
e 112 206
e 112 216
e 112 247
e 113 117
e 113 124
e 113 131
e 113 140
e 113 155
e 113 156
e 113 175
e 113 208
e 114 135
e 114 136
e 114 157
e 114 193
e 114 204
e 114 215
e 114 232
e 114 239
e 115 130
e 115 136
e 115 141
e 115 144
e 115 168
e 115 208
e 115 220
e 116 127
e 116 131
e 116 132
e 116 134
e 116 138
e 116 153
e 116 174
e 116 177
e 116 222
e 116 230
e 117 142
e 117 169
e 117 195
e 117 202
e 117 205
e 117 214
e 117 229
e 118 123
e 118 136
e 118 157
e 118 159
e 118 163
e 118 165
e 118 178
e 118 202
e 118 213
e 118 218
e 119 122
e 119 123
e 119 150
e 119 156
e 119 183
e 119 185
e 119 218
e 120 121
e 120 122
e 120 158
e 120 163
e 120 166
e 120 168
e 120 177
e 120 191
e 120 196
e 121 135
e 121 149
e 121 156
e 121 175
e 121 196
e 121 197
e 121 207
e 121 229
e 122 139
e 122 145
e 122 149
e 122 153
e 122 167
e 122 189
e 122 193
e 122 194
e 122 209
e 122 220
e 122 228
e 122 246
e 123 125
e 123 172
e 123 178
e 123 183
e 123 191
e 123 203
e 123 208
e 123 227
e 123 236
e 123 245
e 124 127
e 124 138
e 124 148
e 124 159
e 124 162
e 124 173
e 124 174
e 124 191
e 124 195
e 124 203
e 125 132
e 125 163
e 126 149
e 126 151
e 126 158
e 126 159
e 126 196
e 126 211
e 126 244
e 127 128
e 127 129
e 127 154
e 127 204
e 127 224
e 128 131
e 128 134
e 128 150
e 128 158
e 128 176
e 128 180
e 128 219
e 128 220
e 128 229
e 129 150
e 129 180
e 129 219
e 130 139
e 130 140
e 130 167
e 130 168
e 130 183
e 130 186
e 130 192
e 130 198
e 130 199
e 130 201
e 130 216
e 130 226
e 130 227
e 130 232
e 130 238
e 131 139
e 131 150
e 131 170
e 131 180
e 131 184
e 131 189
e 131 206
e 132 138
e 132 144
e 132 159
e 132 173
e 132 197
e 132 207
e 132 233
e 132 247
e 132 250
e 133 135
e 133 149
e 133 156
e 133 174
e 133 175
e 133 176
e 133 192
e 133 210
e 133 234
e 133 250
e 134 163
e 134 168
e 134 171
e 134 177
e 134 180
e 134 187
e 134 238
e 135 182
e 135 185
e 135 205
e 135 209
e 135 220
e 135 231
e 136 145
e 136 169
e 136 186
e 136 248
e 137 149
e 137 152
e 137 162
e 137 163
e 137 182
e 137 187
e 137 191
e 137 194
e 137 212
e 137 232
e 138 162
e 138 164
e 138 172
e 138 217
e 138 221
e 138 226
e 138 236
e 138 246
e 139 148
e 139 166
e 139 196
e 139 249
e 140 143
e 140 148
e 140 160
e 140 164
e 140 203
e 140 227
e 141 170
e 141 215
e 141 226
e 141 250
e 142 176
e 142 186
e 142 194
e 142 196
e 142 199
e 142 245
e 143 174
e 143 196
e 143 215
e 143 220
e 144 150
e 144 158
e 144 163
e 144 169
e 144 174
e 144 179
e 144 233
e 145 147
e 145 169
e 145 180
e 145 191
e 145 217
e 145 234
e 146 166
e 146 168
e 146 181
e 146 188
e 146 195
e 146 209
e 146 242
e 147 152
e 147 161
e 147 163
e 147 172
e 147 182
e 147 187
e 147 217
e 147 225
e 147 245
e 148 155
e 148 173
e 148 182
e 148 221
e 148 233
e 148 235
e 148 240
e 149 156
e 149 170
e 149 188
e 149 198
e 149 201
e 149 204
e 149 222
e 150 157
e 150 166
e 150 176
e 150 179
e 150 221
e 150 241
e 151 175
e 151 211
e 151 212
e 151 213
e 151 223
e 151 247
e 152 158
e 152 172
e 152 176
e 152 178
e 152 209
e 152 220
e 152 239
e 152 246
e 153 197
e 153 227
e 153 247
e 154 171
e 154 188
e 154 195
e 154 203
e 154 241
e 154 246
e 155 165
e 155 176
e 155 188
e 155 226
e 156 190
e 156 205
e 156 223
e 156 239
e 157 214
e 158 164
e 158 171
e 158 182
e 158 186
e 158 188
e 158 219
e 159 175
e 159 181
e 159 188
e 159 189
e 159 191
e 159 202
e 159 249
e 160 166
e 160 178
e 160 181
e 160 216
e 160 223
e 160 239
e 160 246
e 161 163
e 161 169
e 161 186
e 161 201
e 161 222
e 161 239
e 162 168
e 162 192
e 162 200
e 162 204
e 163 246
e 164 167
e 164 185
e 164 188
e 164 191
e 164 217
e 164 225
e 164 236
e 164 243
e 164 249
e 164 251
e 166 172
e 166 178
e 166 190
e 166 234
e 166 237
e 167 190
e 167 191
e 167 211
e 167 217
e 168 174
e 168 199
e 168 205
e 168 249
e 169 200
e 169 207
e 169 213
e 169 222
e 169 247
e 169 249
e 169 251
e 170 231
e 170 233
e 171 181
e 171 219
e 171 235
e 172 175
e 172 233
e 172 239
e 172 241
e 172 245
e 173 191
e 173 215
e 173 237
e 174 194
e 174 218
e 174 222
e 174 234
e 175 202
e 176 179
e 176 180
e 177 192
e 177 202
e 177 223
e 177 240
e 177 249
e 177 250
e 178 184
e 178 227
e 178 232
e 178 240
e 178 242
e 179 201
e 179 209
e 179 232
e 179 249
e 180 238
e 180 243
e 180 246
e 180 247
e 181 194
e 181 245
e 181 248
e 182 187
e 182 212
e 182 222
e 182 227
e 183 190
e 183 191
e 183 203
e 183 206
e 183 214
e 184 189
e 184 234
e 185 192
e 185 231
e 185 243
e 186 224
e 186 245
e 188 199
e 188 209
e 188 212
e 189 215
e 190 198
e 190 239
e 190 243
e 191 233
e 191 234
e 192 207
e 192 208
e 192 222
e 192 241
e 193 219
e 194 203
e 194 234
e 195 198
e 195 201
e 195 218
e 195 221
e 195 237
e 196 231
e 198 199
e 199 232
e 200 213
e 201 202
e 201 213
e 201 236
e 202 203
e 202 237
e 203 208
e 204 222
e 205 224
e 206 217
e 207 251
e 208 216
e 210 225
e 210 249
e 211 224
e 211 227
e 211 233
e 211 243
e 212 233
e 212 234
e 213 239
e 214 221
e 214 226
e 214 228
e 214 246
e 216 237
e 216 238
e 218 248
e 218 251
e 219 220
e 219 226
e 219 244
e 219 249
e 220 239
e 221 225
e 221 249
e 224 241
e 224 242
e 226 231
e 226 241
e 226 245
e 229 231
e 233 235
e 236 242
e 238 247
e 241 246
e 242 248
e 243 246
e 246 251
e 248 251
